p cnf 963 2473
51 -2 -697 0
-51 2 0
-51 697 0
52 -51 -3 0
-52 51 0
-52 3 0
53 -5 -4 0
-53 5 0
-53 4 0
54 -53 -6 0
-54 53 0
-54 6 0
55 -698 -699 0
-55 698 0
-55 699 0
56 -700 -7 0
-56 700 0
-56 7 0
57 -56 -701 0
-57 56 0
-57 701 0
58 -702 -55 0
-58 702 0
-58 55 0
59 -10 -703 0
-59 10 0
-59 703 0
60 -59 -704 0
-60 59 0
-60 704 0
61 -705 -58 0
-61 705 0
-61 58 0
62 -13 -12 0
-62 13 0
-62 12 0
63 -62 -706 0
-63 62 0
-63 706 0
64 -707 -61 0
-64 707 0
-64 61 0
65 -708 -15 0
-65 708 0
-65 15 0
66 -65 -17 0
-66 65 0
-66 17 0
67 -709 -64 0
-67 709 0
-67 64 0
68 -18 -710 0
-68 18 0
-68 710 0
69 -68 -19 0
-69 68 0
-69 19 0
70 -711 -67 0
-70 711 0
-70 67 0
71 -21 -712 0
-71 21 0
-71 712 0
72 -71 -22 0
-72 71 0
-72 22 0
73 -713 -70 0
-73 713 0
-73 70 0
74 -23 -714 0
-74 23 0
-74 714 0
75 -74 -715 0
-75 74 0
-75 715 0
76 -716 -73 0
-76 716 0
-76 73 0
77 -717 -23 0
-77 717 0
-77 23 0
78 -77 -718 0
-78 77 0
-78 718 0
79 -719 -76 0
-79 719 0
-79 76 0
80 -720 -721 0
-80 720 0
-80 721 0
81 -80 -25 0
-81 80 0
-81 25 0
82 -722 -79 0
-82 722 0
-82 79 0
83 -723 -8 0
-83 723 0
-83 8 0
84 -83 -724 0
-84 83 0
-84 724 0
85 -725 -82 0
-85 725 0
-85 82 0
86 -726 -700 0
-86 726 0
-86 700 0
87 -86 -31 0
-87 86 0
-87 31 0
88 -727 -85 0
-88 727 0
-88 85 0
89 -728 -729 0
-89 728 0
-89 729 0
90 -89 -703 0
-90 89 0
-90 703 0
91 -730 -88 0
-91 730 0
-91 88 0
92 -721 -16 0
-92 721 0
-92 16 0
93 -92 -718 0
-93 92 0
-93 718 0
94 -731 -91 0
-94 731 0
-94 91 0
95 -732 -733 0
-95 732 0
-95 733 0
96 -95 -34 0
-96 95 0
-96 34 0
97 -734 -94 0
-97 734 0
-97 94 0
98 -35 -20 0
-98 35 0
-98 20 0
99 -98 -19 0
-99 98 0
-99 19 0
100 -735 -97 0
-100 735 0
-100 97 0
101 -728 -23 0
-101 728 0
-101 23 0
102 -101 -736 0
-102 101 0
-102 736 0
103 -737 -100 0
-103 737 0
-103 100 0
104 -18 -708 0
-104 18 0
-104 708 0
105 -104 -738 0
-105 104 0
-105 738 0
106 -739 -103 0
-106 739 0
-106 103 0
107 -740 -741 0
-107 740 0
-107 741 0
108 -107 -18 0
-108 107 0
-108 18 0
109 -742 -106 0
-109 742 0
-109 106 0
110 -39 -38 0
-110 39 0
-110 38 0
111 -110 -40 0
-111 110 0
-111 40 0
112 -743 -109 0
-112 743 0
-112 109 0
113 -744 -745 0
-113 744 0
-113 745 0
114 -113 -724 0
-114 113 0
-114 724 0
115 -746 -112 0
-115 746 0
-115 112 0
116 -747 -1 0
-116 747 0
-116 1 0
117 -116 -34 0
-117 116 0
-117 34 0
118 -748 -115 0
-118 748 0
-118 115 0
119 -740 -5 0
-119 740 0
-119 5 0
120 -119 -706 0
-120 119 0
-120 706 0
121 -749 -118 0
-121 749 0
-121 118 0
122 -42 -747 0
-122 42 0
-122 747 0
123 -122 -750 0
-123 122 0
-123 750 0
124 -751 -121 0
-124 751 0
-124 121 0
125 -752 -41 0
-125 752 0
-125 41 0
126 -125 -753 0
-126 125 0
-126 753 0
127 -754 -124 0
-127 754 0
-127 124 0
128 -33 -4 0
-128 33 0
-128 4 0
129 -128 -747 0
-129 128 0
-129 747 0
130 -755 -127 0
-130 755 0
-130 127 0
131 -20 -756 0
-131 20 0
-131 756 0
132 -131 -26 0
-132 131 0
-132 26 0
133 -757 -130 0
-133 757 0
-133 130 0
134 -741 -31 0
-134 741 0
-134 31 0
135 -134 -758 0
-135 134 0
-135 758 0
136 -759 -133 0
-136 759 0
-136 133 0
137 -760 -15 0
-137 760 0
-137 15 0
138 -137 -46 0
-138 137 0
-138 46 0
139 -761 -136 0
-139 761 0
-139 136 0
140 -28 -15 0
-140 28 0
-140 15 0
141 -140 -715 0
-141 140 0
-141 715 0
142 -762 -139 0
-142 762 0
-142 139 0
143 -741 -732 0
-143 741 0
-143 732 0
144 -143 -21 0
-144 143 0
-144 21 0
145 -763 -142 0
-145 763 0
-145 142 0
146 -764 -3 0
-146 764 0
-146 3 0
147 -146 -46 0
-147 146 0
-147 46 0
148 -765 -145 0
-148 765 0
-148 145 0
149 -35 -721 0
-149 35 0
-149 721 0
150 -149 -48 0
-150 149 0
-150 48 0
151 -766 -148 0
-151 766 0
-151 148 0
152 -12 -4 0
-152 12 0
-152 4 0
153 -152 -44 0
-153 152 0
-153 44 0
154 -767 -151 0
-154 767 0
-154 151 0
155 -45 -44 0
-155 45 0
-155 44 0
156 -155 -22 0
-156 155 0
-156 22 0
157 -768 -154 0
-157 768 0
-157 154 0
158 -724 -18 0
-158 724 0
-158 18 0
159 -158 -46 0
-159 158 0
-159 46 0
160 -769 -157 0
-160 769 0
-160 157 0
161 -38 -37 0
-161 38 0
-161 37 0
162 -161 -770 0
-162 161 0
-162 770 0
163 -771 -160 0
-163 771 0
-163 160 0
164 -772 -4 0
-164 772 0
-164 4 0
165 -164 -704 0
-165 164 0
-165 704 0
166 -773 -163 0
-166 773 0
-166 163 0
167 -774 -775 0
-167 774 0
-167 775 0
168 -167 -753 0
-168 167 0
-168 753 0
169 -776 -166 0
-169 776 0
-169 166 0
170 -35 -729 0
-170 35 0
-170 729 0
171 -170 -723 0
-171 170 0
-171 723 0
172 -777 -169 0
-172 777 0
-172 169 0
173 -760 -14 0
-173 760 0
-173 14 0
174 -173 -40 0
-174 173 0
-174 40 0
175 -778 -172 0
-175 778 0
-175 172 0
176 -42 -41 0
-176 42 0
-176 41 0
177 -176 -738 0
-177 176 0
-177 738 0
178 -779 -175 0
-178 779 0
-178 175 0
179 -764 -38 0
-179 764 0
-179 38 0
180 -179 -701 0
-180 179 0
-180 701 0
181 -780 -178 0
-181 780 0
-181 178 0
182 -37 -5 0
-182 37 0
-182 5 0
183 -182 -772 0
-183 182 0
-183 772 0
184 -781 -181 0
-184 781 0
-184 181 0
185 -18 -706 0
-185 18 0
-185 706 0
186 -185 -703 0
-186 185 0
-186 703 0
187 -782 -184 0
-187 782 0
-187 184 0
188 -36 -30 0
-188 36 0
-188 30 0
189 -188 -703 0
-189 188 0
-189 703 0
190 -783 -187 0
-190 783 0
-190 187 0
191 -20 -706 0
-191 20 0
-191 706 0
192 -191 -753 0
-192 191 0
-192 753 0
193 -784 -190 0
-193 784 0
-193 190 0
194 -785 -37 0
-194 785 0
-194 37 0
195 -194 -43 0
-195 194 0
-195 43 0
196 -786 -193 0
-196 786 0
-196 193 0
197 -42 -700 0
-197 42 0
-197 700 0
198 -197 -738 0
-198 197 0
-198 738 0
199 -787 -196 0
-199 787 0
-199 196 0
200 -20 -1 0
-200 20 0
-200 1 0
201 -200 -775 0
-201 200 0
-201 775 0
202 -788 -199 0
-202 788 0
-202 199 0
203 -774 -5 0
-203 774 0
-203 5 0
204 -203 -25 0
-204 203 0
-204 25 0
205 -789 -202 0
-205 789 0
-205 202 0
206 -16 -756 0
-206 16 0
-206 756 0
207 -206 -13 0
-207 206 0
-207 13 0
208 -790 -205 0
-208 790 0
-208 205 0
209 -740 -721 0
-209 740 0
-209 721 0
210 -209 -791 0
-210 209 0
-210 791 0
211 -792 -208 0
-211 792 0
-211 208 0
212 -46 -18 0
-212 46 0
-212 18 0
213 -212 -6 0
-213 212 0
-213 6 0
214 -793 -211 0
-214 793 0
-214 211 0
215 -758 -733 0
-215 758 0
-215 733 0
216 -215 -736 0
-216 215 0
-216 736 0
217 -794 -214 0
-217 794 0
-217 214 0
218 -50 -700 0
-218 50 0
-218 700 0
219 -218 -738 0
-219 218 0
-219 738 0
220 -795 -217 0
-220 795 0
-220 217 0
221 -752 -700 0
-221 752 0
-221 700 0
222 -221 -49 0
-222 221 0
-222 49 0
223 -796 -220 0
-223 796 0
-223 220 0
224 -30 -1 0
-224 30 0
-224 1 0
225 -224 -706 0
-225 224 0
-225 706 0
226 -797 -223 0
-226 797 0
-226 223 0
227 -28 -706 0
-227 28 0
-227 706 0
228 -227 -34 0
-228 227 0
-228 34 0
229 -798 -226 0
-229 798 0
-229 226 0
230 -33 -1 0
-230 33 0
-230 1 0
231 -230 -799 0
-231 230 0
-231 799 0
232 -800 -229 0
-232 800 0
-232 229 0
233 -45 -706 0
-233 45 0
-233 706 0
234 -233 -703 0
-234 233 0
-234 703 0
235 -801 -232 0
-235 801 0
-235 232 0
236 -155 -706 0
-236 155 0
-236 706 0
237 -802 -235 0
-237 802 0
-237 235 0
238 -728 -803 0
-238 728 0
-238 803 0
239 -238 -736 0
-239 238 0
-239 736 0
240 -804 -237 0
-240 804 0
-240 237 0
241 -36 -697 0
-241 36 0
-241 697 0
242 -241 -40 0
-242 241 0
-242 40 0
243 -805 -240 0
-243 805 0
-243 240 0
244 -14 -9 0
-244 14 0
-244 9 0
245 -244 -750 0
-245 244 0
-245 750 0
246 -806 -243 0
-246 806 0
-246 243 0
247 -760 -13 0
-247 760 0
-247 13 0
248 -247 -22 0
-248 247 0
-248 22 0
249 -807 -246 0
-249 807 0
-249 246 0
250 -8 -5 0
-250 8 0
-250 5 0
251 -250 -760 0
-251 250 0
-251 760 0
252 -808 -249 0
-252 808 0
-252 249 0
253 -799 -809 0
-253 799 0
-253 809 0
254 -253 -736 0
-254 253 0
-254 736 0
255 -810 -252 0
-255 810 0
-255 252 0
256 -45 -32 0
-256 45 0
-256 32 0
257 -256 -6 0
-257 256 0
-257 6 0
258 -811 -255 0
-258 811 0
-258 255 0
259 -764 -7 0
-259 764 0
-259 7 0
260 -259 -785 0
-260 259 0
-260 785 0
261 -812 -258 0
-261 812 0
-261 258 0
262 -813 -1 0
-262 813 0
-262 1 0
263 -262 -758 0
-263 262 0
-263 758 0
264 -814 -261 0
-264 814 0
-264 261 0
265 -20 -815 0
-265 20 0
-265 815 0
266 -265 -22 0
-266 265 0
-266 22 0
267 -816 -264 0
-267 816 0
-267 264 0
268 -41 -13 0
-268 41 0
-268 13 0
269 -268 -750 0
-269 268 0
-269 750 0
270 -817 -267 0
-270 817 0
-270 267 0
271 -721 -803 0
-271 721 0
-271 803 0
272 -271 -21 0
-272 271 0
-272 21 0
273 -818 -270 0
-273 818 0
-273 270 0
274 -48 -700 0
-274 48 0
-274 700 0
275 -274 -704 0
-275 274 0
-275 704 0
276 -819 -273 0
-276 819 0
-276 273 0
277 -36 -721 0
-277 36 0
-277 721 0
278 -277 -16 0
-278 277 0
-278 16 0
279 -820 -276 0
-279 820 0
-279 276 0
280 -28 -747 0
-280 28 0
-280 747 0
281 -280 -27 0
-281 280 0
-281 27 0
282 -821 -279 0
-282 821 0
-282 279 0
283 -3 -697 0
-283 3 0
-283 697 0
284 -283 -22 0
-284 283 0
-284 22 0
285 -822 -282 0
-285 822 0
-285 282 0
286 -803 -7 0
-286 803 0
-286 7 0
287 -286 -17 0
-287 286 0
-287 17 0
288 -823 -285 0
-288 823 0
-288 285 0
289 -8 -2 0
-289 8 0
-289 2 0
290 -289 -19 0
-290 289 0
-290 19 0
291 -824 -288 0
-291 824 0
-291 288 0
292 -17 -7 0
-292 17 0
-292 7 0
293 -292 -27 0
-293 292 0
-293 27 0
294 -825 -291 0
-294 825 0
-294 291 0
295 -42 -745 0
-295 42 0
-295 745 0
296 -295 -40 0
-296 295 0
-296 40 0
297 -826 -294 0
-297 826 0
-297 294 0
298 -753 -15 0
-298 753 0
-298 15 0
299 -298 -750 0
-299 298 0
-299 750 0
300 -827 -297 0
-300 827 0
-300 297 0
301 -36 -18 0
-301 36 0
-301 18 0
302 -301 -724 0
-302 301 0
-302 724 0
303 -828 -300 0
-303 828 0
-303 300 0
304 -745 -37 0
-304 745 0
-304 37 0
305 -304 -6 0
-305 304 0
-305 6 0
306 -829 -303 0
-306 829 0
-306 303 0
307 -744 -18 0
-307 744 0
-307 18 0
308 -307 -50 0
-308 307 0
-308 50 0
309 -830 -306 0
-309 830 0
-309 306 0
310 -752 -27 0
-310 752 0
-310 27 0
311 -310 -704 0
-311 310 0
-311 704 0
312 -831 -309 0
-312 831 0
-312 309 0
313 -32 -8 0
-313 32 0
-313 8 0
314 -313 -9 0
-314 313 0
-314 9 0
315 -832 -312 0
-315 832 0
-315 312 0
316 -760 -9 0
-316 760 0
-316 9 0
317 -316 -44 0
-317 316 0
-317 44 0
318 -833 -315 0
-318 833 0
-318 315 0
319 -31 -4 0
-319 31 0
-319 4 0
320 -319 -27 0
-320 319 0
-320 27 0
321 -834 -318 0
-321 834 0
-321 318 0
322 -28 -26 0
-322 28 0
-322 26 0
323 -322 -813 0
-323 322 0
-323 813 0
324 -835 -321 0
-324 835 0
-324 321 0
325 -712 -733 0
-325 712 0
-325 733 0
326 -325 -720 0
-326 325 0
-326 720 0
327 -836 -324 0
-327 836 0
-327 324 0
328 -752 -803 0
-328 752 0
-328 803 0
329 -328 -736 0
-329 328 0
-329 736 0
330 -837 -327 0
-330 837 0
-330 327 0
331 -49 -30 0
-331 49 0
-331 30 0
332 -331 -724 0
-332 331 0
-332 724 0
333 -838 -330 0
-333 838 0
-333 330 0
334 -772 -19 0
-334 772 0
-334 19 0
335 -334 -6 0
-335 334 0
-335 6 0
336 -839 -333 0
-336 839 0
-336 333 0
337 -724 -697 0
-337 724 0
-337 697 0
338 -337 -17 0
-338 337 0
-338 17 0
339 -840 -336 0
-339 840 0
-339 336 0
340 -134 -21 0
-340 134 0
-340 21 0
341 -841 -339 0
-341 841 0
-341 339 0
342 -44 -740 0
-342 44 0
-342 740 0
343 -342 -809 0
-343 342 0
-343 809 0
344 -842 -341 0
-344 842 0
-344 341 0
345 -48 -791 0
-345 48 0
-345 791 0
346 -345 -770 0
-346 345 0
-346 770 0
347 -843 -344 0
-347 843 0
-347 344 0
348 -726 -747 0
-348 726 0
-348 747 0
349 -348 -809 0
-349 348 0
-349 809 0
350 -844 -347 0
-350 844 0
-350 347 0
351 -16 -729 0
-351 16 0
-351 729 0
352 -351 -13 0
-352 351 0
-352 13 0
353 -845 -350 0
-353 845 0
-353 350 0
354 -846 -35 0
-354 846 0
-354 35 0
355 -354 -18 0
-355 354 0
-355 18 0
356 -847 -353 0
-356 847 0
-356 353 0
357 -47 -30 0
-357 47 0
-357 30 0
358 -357 -701 0
-358 357 0
-358 701 0
359 -848 -356 0
-359 848 0
-359 356 0
360 -32 -5 0
-360 32 0
-360 5 0
361 -360 -715 0
-361 360 0
-361 715 0
362 -849 -359 0
-362 849 0
-362 359 0
363 -31 -15 0
-363 31 0
-363 15 0
364 -363 -738 0
-364 363 0
-364 738 0
365 -850 -362 0
-365 850 0
-365 362 0
366 -728 -756 0
-366 728 0
-366 756 0
367 -366 -23 0
-367 366 0
-367 23 0
368 -851 -365 0
-368 851 0
-368 365 0
369 -39 -16 0
-369 39 0
-369 16 0
370 -369 -11 0
-370 369 0
-370 11 0
371 -852 -368 0
-371 852 0
-371 368 0
372 -700 -729 0
-372 700 0
-372 729 0
373 -372 -28 0
-373 372 0
-373 28 0
374 -853 -371 0
-374 853 0
-374 371 0
375 -846 -740 0
-375 846 0
-375 740 0
376 -375 -791 0
-376 375 0
-376 791 0
377 -854 -374 0
-377 854 0
-377 374 0
378 -46 -813 0
-378 46 0
-378 813 0
379 -378 -22 0
-379 378 0
-379 22 0
380 -855 -377 0
-380 855 0
-380 377 0
381 -13 -729 0
-381 13 0
-381 729 0
382 -381 -24 0
-382 381 0
-382 24 0
383 -856 -380 0
-383 856 0
-383 380 0
384 -721 -714 0
-384 721 0
-384 714 0
385 -384 -27 0
-385 384 0
-385 27 0
386 -857 -383 0
-386 857 0
-386 383 0
387 -41 -741 0
-387 41 0
-387 741 0
388 -387 -764 0
-388 387 0
-388 764 0
389 -858 -386 0
-389 858 0
-389 386 0
390 -28 -813 0
-390 28 0
-390 813 0
391 -390 -809 0
-391 390 0
-391 809 0
392 -859 -389 0
-392 859 0
-392 389 0
393 -738 -706 0
-393 738 0
-393 706 0
394 -393 -758 0
-394 393 0
-394 758 0
395 -860 -392 0
-395 860 0
-395 392 0
396 -846 -700 0
-396 846 0
-396 700 0
397 -396 -17 0
-397 396 0
-397 17 0
398 -861 -395 0
-398 861 0
-398 395 0
399 -862 -3 0
-399 862 0
-399 3 0
400 -399 -758 0
-400 399 0
-400 758 0
401 -863 -398 0
-401 863 0
-401 398 0
402 -772 -5 0
-402 772 0
-402 5 0
403 -402 -9 0
-403 402 0
-403 9 0
404 -864 -401 0
-404 864 0
-404 401 0
405 -34 -9 0
-405 34 0
-405 9 0
406 -405 -6 0
-406 405 0
-406 6 0
407 -865 -404 0
-407 865 0
-407 404 0
408 -48 -41 0
-408 48 0
-408 41 0
409 -408 -34 0
-409 408 0
-409 34 0
410 -866 -407 0
-410 866 0
-410 407 0
411 -728 -24 0
-411 728 0
-411 24 0
412 -411 -704 0
-412 411 0
-412 704 0
413 -867 -410 0
-413 867 0
-413 410 0
414 -43 -729 0
-414 43 0
-414 729 0
415 -414 -6 0
-415 414 0
-415 6 0
416 -868 -413 0
-416 868 0
-416 413 0
417 -33 -14 0
-417 33 0
-417 14 0
418 -417 -25 0
-418 417 0
-418 25 0
419 -869 -416 0
-419 869 0
-419 416 0
420 -33 -775 0
-420 33 0
-420 775 0
421 -420 -799 0
-421 420 0
-421 799 0
422 -870 -419 0
-422 870 0
-422 419 0
423 -48 -40 0
-423 48 0
-423 40 0
424 -423 -11 0
-424 423 0
-424 11 0
425 -871 -422 0
-425 871 0
-425 422 0
426 -50 -9 0
-426 50 0
-426 9 0
427 -426 -19 0
-427 426 0
-427 19 0
428 -872 -425 0
-428 872 0
-428 425 0
429 -726 -756 0
-429 726 0
-429 756 0
430 -429 -750 0
-430 429 0
-430 750 0
431 -873 -428 0
-431 873 0
-431 428 0
432 -420 -764 0
-432 420 0
-432 764 0
433 -874 -431 0
-433 874 0
-433 431 0
434 -37 -20 0
-434 37 0
-434 20 0
435 -434 -724 0
-435 434 0
-435 724 0
436 -875 -433 0
-436 875 0
-436 433 0
437 -723 -10 0
-437 723 0
-437 10 0
438 -437 -815 0
-438 437 0
-438 815 0
439 -876 -436 0
-439 876 0
-439 436 0
440 -732 -756 0
-440 732 0
-440 756 0
441 -440 -774 0
-441 440 0
-441 774 0
442 -877 -439 0
-442 877 0
-442 439 0
443 -33 -712 0
-443 33 0
-443 712 0
444 -443 -785 0
-444 443 0
-444 785 0
445 -878 -442 0
-445 878 0
-445 442 0
446 -37 -706 0
-446 37 0
-446 706 0
447 -446 -22 0
-447 446 0
-447 22 0
448 -879 -445 0
-448 879 0
-448 445 0
449 -39 -34 0
-449 39 0
-449 34 0
450 -449 -21 0
-450 449 0
-450 21 0
451 -880 -448 0
-451 880 0
-451 448 0
452 -10 -7 0
-452 10 0
-452 7 0
453 -452 -720 0
-453 452 0
-453 720 0
454 -881 -451 0
-454 881 0
-454 451 0
455 -45 -714 0
-455 45 0
-455 714 0
456 -455 -40 0
-456 455 0
-456 40 0
457 -882 -454 0
-457 882 0
-457 454 0
458 -44 -3 0
-458 44 0
-458 3 0
459 -458 -736 0
-459 458 0
-459 736 0
460 -883 -457 0
-460 883 0
-460 457 0
461 -35 -803 0
-461 35 0
-461 803 0
462 -461 -809 0
-462 461 0
-462 809 0
463 -884 -460 0
-463 884 0
-463 460 0
464 -200 -32 0
-464 200 0
-464 32 0
465 -885 -463 0
-465 885 0
-465 463 0
466 -35 -708 0
-466 35 0
-466 708 0
467 -466 -726 0
-467 466 0
-467 726 0
468 -886 -465 0
-468 886 0
-468 465 0
469 -764 -774 0
-469 764 0
-469 774 0
470 -469 -717 0
-470 469 0
-470 717 0
471 -887 -468 0
-471 887 0
-471 468 0
472 -20 -18 0
-472 20 0
-472 18 0
473 -472 -750 0
-473 472 0
-473 750 0
474 -888 -471 0
-474 888 0
-474 471 0
475 -772 -31 0
-475 772 0
-475 31 0
476 -475 -720 0
-476 475 0
-476 720 0
477 -889 -474 0
-477 889 0
-477 474 0
478 -13 -8 0
-478 13 0
-478 8 0
479 -478 -17 0
-479 478 0
-479 17 0
480 -890 -477 0
-480 890 0
-480 477 0
481 -740 -708 0
-481 740 0
-481 708 0
482 -481 -815 0
-482 481 0
-482 815 0
483 -891 -480 0
-483 891 0
-483 480 0
484 -712 -729 0
-484 712 0
-484 729 0
485 -484 -6 0
-485 484 0
-485 6 0
486 -892 -483 0
-486 892 0
-486 483 0
487 -40 -701 0
-487 40 0
-487 701 0
488 -487 -704 0
-488 487 0
-488 704 0
489 -893 -486 0
-489 893 0
-489 486 0
490 -706 -729 0
-490 706 0
-490 729 0
491 -490 -40 0
-491 490 0
-491 40 0
492 -894 -489 0
-492 894 0
-492 489 0
493 -27 -700 0
-493 27 0
-493 700 0
494 -493 -11 0
-494 493 0
-494 11 0
495 -895 -492 0
-495 895 0
-495 492 0
496 -48 -3 0
-496 48 0
-496 3 0
497 -496 -718 0
-497 496 0
-497 718 0
498 -896 -495 0
-498 896 0
-498 495 0
499 -50 -45 0
-499 50 0
-499 45 0
500 -499 -718 0
-500 499 0
-500 718 0
501 -897 -498 0
-501 897 0
-501 498 0
502 -38 -33 0
-502 38 0
-502 33 0
503 -502 -799 0
-503 502 0
-503 799 0
504 -898 -501 0
-504 898 0
-504 501 0
505 -28 -5 0
-505 28 0
-505 5 0
506 -505 -31 0
-506 505 0
-506 31 0
507 -899 -504 0
-507 899 0
-507 504 0
508 -760 -750 0
-508 760 0
-508 750 0
509 -508 -714 0
-509 508 0
-509 714 0
510 -900 -507 0
-510 900 0
-510 507 0
511 -35 -33 0
-511 35 0
-511 33 0
512 -511 -774 0
-512 511 0
-512 774 0
513 -901 -510 0
-513 901 0
-513 510 0
514 -26 -708 0
-514 26 0
-514 708 0
515 -514 -46 0
-515 514 0
-515 46 0
516 -902 -513 0
-516 902 0
-516 513 0
517 -16 -733 0
-517 16 0
-517 733 0
518 -517 -25 0
-518 517 0
-518 25 0
519 -903 -516 0
-519 903 0
-519 516 0
520 -20 -4 0
-520 20 0
-520 4 0
521 -520 -36 0
-521 520 0
-521 36 0
522 -904 -519 0
-522 904 0
-522 519 0
523 -741 -20 0
-523 741 0
-523 20 0
524 -523 -14 0
-524 523 0
-524 14 0
525 -905 -522 0
-525 905 0
-525 522 0
526 -772 -38 0
-526 772 0
-526 38 0
527 -526 -717 0
-527 526 0
-527 717 0
528 -906 -525 0
-528 906 0
-528 525 0
529 -20 -710 0
-529 20 0
-529 710 0
530 -529 -21 0
-530 529 0
-530 21 0
531 -907 -528 0
-531 907 0
-531 528 0
532 -712 -775 0
-532 712 0
-532 775 0
533 -532 -715 0
-533 532 0
-533 715 0
534 -908 -531 0
-534 908 0
-534 531 0
535 -15 -701 0
-535 15 0
-535 701 0
536 -535 -29 0
-536 535 0
-536 29 0
537 -909 -534 0
-537 909 0
-537 534 0
538 -753 -721 0
-538 753 0
-538 721 0
539 -538 -758 0
-539 538 0
-539 758 0
540 -910 -537 0
-540 910 0
-540 537 0
541 -809 -30 0
-541 809 0
-541 30 0
542 -541 -715 0
-542 541 0
-542 715 0
543 -911 -540 0
-543 911 0
-543 540 0
544 -35 -728 0
-544 35 0
-544 728 0
545 -544 -42 0
-545 544 0
-545 42 0
546 -912 -543 0
-546 912 0
-546 543 0
547 -12 -9 0
-547 12 0
-547 9 0
548 -547 -24 0
-548 547 0
-548 24 0
549 -913 -546 0
-549 913 0
-549 546 0
550 -29 -756 0
-550 29 0
-550 756 0
551 -550 -50 0
-551 550 0
-551 50 0
552 -914 -549 0
-552 914 0
-552 549 0
553 -38 -2 0
-553 38 0
-553 2 0
554 -553 -772 0
-554 553 0
-554 772 0
555 -915 -552 0
-555 915 0
-555 552 0
556 -42 -10 0
-556 42 0
-556 10 0
557 -556 -736 0
-557 556 0
-557 736 0
558 -916 -555 0
-558 916 0
-558 555 0
559 -49 -29 0
-559 49 0
-559 29 0
560 -559 -25 0
-560 559 0
-560 25 0
561 -917 -558 0
-561 917 0
-561 558 0
562 -717 -9 0
-562 717 0
-562 9 0
563 -562 -6 0
-563 562 0
-563 6 0
564 -918 -561 0
-564 918 0
-564 561 0
565 -38 -20 0
-565 38 0
-565 20 0
566 -565 -750 0
-566 565 0
-566 750 0
567 -919 -564 0
-567 919 0
-567 564 0
568 -48 -4 0
-568 48 0
-568 4 0
569 -568 -45 0
-569 568 0
-569 45 0
570 -920 -567 0
-570 920 0
-570 567 0
571 -723 -701 0
-571 723 0
-571 701 0
572 -571 -706 0
-572 571 0
-572 706 0
573 -921 -570 0
-573 921 0
-573 570 0
574 -724 -714 0
-574 724 0
-574 714 0
575 -574 -25 0
-575 574 0
-575 25 0
576 -922 -573 0
-576 922 0
-576 573 0
577 -221 -720 0
-577 221 0
-577 720 0
578 -923 -576 0
-578 923 0
-578 576 0
579 -43 -36 0
-579 43 0
-579 36 0
580 -579 -46 0
-580 579 0
-580 46 0
581 -924 -578 0
-581 924 0
-581 578 0
582 -772 -701 0
-582 772 0
-582 701 0
583 -582 -770 0
-583 582 0
-583 770 0
584 -925 -581 0
-584 925 0
-584 581 0
585 -764 -862 0
-585 764 0
-585 862 0
586 -585 -50 0
-586 585 0
-586 50 0
587 -926 -584 0
-587 926 0
-587 584 0
588 -50 -26 0
-588 50 0
-588 26 0
589 -588 -718 0
-589 588 0
-589 718 0
590 -927 -587 0
-590 927 0
-590 587 0
591 -733 -701 0
-591 733 0
-591 701 0
592 -591 -43 0
-592 591 0
-592 43 0
593 -928 -590 0
-593 928 0
-593 590 0
594 -750 -700 0
-594 750 0
-594 700 0
595 -594 -809 0
-595 594 0
-595 809 0
596 -929 -593 0
-596 929 0
-596 593 0
597 -50 -724 0
-597 50 0
-597 724 0
598 -597 -703 0
-598 597 0
-598 703 0
599 -930 -596 0
-599 930 0
-599 596 0
600 -728 -715 0
-600 728 0
-600 715 0
601 -600 -11 0
-601 600 0
-601 11 0
602 -931 -599 0
-602 931 0
-602 599 0
603 -23 -770 0
-603 23 0
-603 770 0
604 -603 -43 0
-604 603 0
-604 43 0
605 -932 -602 0
-605 932 0
-605 602 0
606 -744 -700 0
-606 744 0
-606 700 0
607 -606 -9 0
-607 606 0
-607 9 0
608 -933 -605 0
-608 933 0
-608 605 0
609 -161 -29 0
-609 161 0
-609 29 0
610 -934 -608 0
-610 934 0
-610 608 0
611 -803 -708 0
-611 803 0
-611 708 0
612 -611 -34 0
-612 611 0
-612 34 0
613 -935 -610 0
-613 935 0
-613 610 0
614 -741 -803 0
-614 741 0
-614 803 0
615 -614 -703 0
-615 614 0
-615 703 0
616 -936 -613 0
-616 936 0
-616 613 0
617 -36 -733 0
-617 36 0
-617 733 0
618 -617 -752 0
-618 617 0
-618 752 0
619 -937 -616 0
-619 937 0
-619 616 0
620 -44 -738 0
-620 44 0
-620 738 0
621 -620 -720 0
-621 620 0
-621 720 0
622 -938 -619 0
-622 938 0
-622 619 0
623 -753 -701 0
-623 753 0
-623 701 0
624 -623 -46 0
-624 623 0
-624 46 0
625 -939 -622 0
-625 939 0
-625 622 0
626 -39 -8 0
-626 39 0
-626 8 0
627 -626 -736 0
-627 626 0
-627 736 0
628 -940 -625 0
-628 940 0
-628 625 0
629 -46 -10 0
-629 46 0
-629 10 0
630 -629 -758 0
-630 629 0
-630 758 0
631 -941 -628 0
-631 941 0
-631 628 0
632 -775 -1 0
-632 775 0
-632 1 0
633 -632 -809 0
-633 632 0
-633 809 0
634 -942 -631 0
-634 942 0
-634 631 0
635 -36 -1 0
-635 36 0
-635 1 0
636 -635 -732 0
-636 635 0
-636 732 0
637 -943 -634 0
-637 943 0
-637 634 0
638 -764 -770 0
-638 764 0
-638 770 0
639 -638 -720 0
-639 638 0
-639 720 0
640 -944 -637 0
-640 944 0
-640 637 0
641 -28 -721 0
-641 28 0
-641 721 0
642 -641 -774 0
-642 641 0
-642 774 0
643 -945 -640 0
-643 945 0
-643 640 0
644 -706 -700 0
-644 706 0
-644 700 0
645 -644 -34 0
-645 644 0
-645 34 0
646 -946 -643 0
-646 946 0
-646 643 0
647 -12 -1 0
-647 12 0
-647 1 0
648 -647 -799 0
-648 647 0
-648 799 0
649 -947 -646 0
-649 947 0
-649 646 0
650 -49 -18 0
-650 49 0
-650 18 0
651 -650 -736 0
-651 650 0
-651 736 0
652 -948 -649 0
-652 948 0
-652 649 0
653 -791 -8 0
-653 791 0
-653 8 0
654 -653 -718 0
-654 653 0
-654 718 0
655 -949 -652 0
-655 949 0
-655 652 0
656 -51 -760 0
-656 51 0
-656 760 0
657 -950 -655 0
-657 950 0
-657 655 0
658 -32 -21 0
-658 32 0
-658 21 0
659 -658 -17 0
-659 658 0
-659 17 0
660 -951 -657 0
-660 951 0
-660 657 0
661 -31 -714 0
-661 31 0
-661 714 0
662 -661 -736 0
-662 661 0
-662 736 0
663 -952 -660 0
-663 952 0
-663 660 0
664 -815 -1 0
-664 815 0
-664 1 0
665 -664 -3 0
-665 664 0
-665 3 0
666 -953 -663 0
-666 953 0
-666 663 0
667 -46 -13 0
-667 46 0
-667 13 0
668 -667 -715 0
-668 667 0
-668 715 0
669 -954 -666 0
-669 954 0
-669 666 0
670 -26 -775 0
-670 26 0
-670 775 0
671 -670 -3 0
-671 670 0
-671 3 0
672 -955 -669 0
-672 955 0
-672 669 0
673 -750 -15 0
-673 750 0
-673 15 0
674 -673 -703 0
-674 673 0
-674 703 0
675 -956 -672 0
-675 956 0
-675 672 0
676 -753 -775 0
-676 753 0
-676 775 0
677 -676 -11 0
-677 676 0
-677 11 0
678 -957 -675 0
-678 957 0
-678 675 0
679 -740 -24 0
-679 740 0
-679 24 0
680 -679 -715 0
-680 679 0
-680 715 0
681 -958 -678 0
-681 958 0
-681 678 0
682 -728 -20 0
-682 728 0
-682 20 0
683 -682 -13 0
-683 682 0
-683 13 0
684 -959 -681 0
-684 959 0
-684 681 0
685 -45 -815 0
-685 45 0
-685 815 0
686 -685 -11 0
-686 685 0
-686 11 0
687 -960 -684 0
-687 960 0
-687 684 0
688 -41 -700 0
-688 41 0
-688 700 0
689 -688 -2 0
-689 688 0
-689 2 0
690 -961 -687 0
-690 961 0
-690 687 0
691 -33 -714 0
-691 33 0
-691 714 0
692 -691 -736 0
-692 691 0
-692 736 0
693 -962 -690 0
-693 962 0
-693 690 0
694 -846 -13 0
-694 846 0
-694 13 0
695 -694 -40 0
-695 694 0
-695 40 0
696 -963 -693 0
-696 963 0
-696 693 0
-697 -1 0
697 1 0
-698 -54 0
698 54 0
-699 -52 0
699 52 0
-700 -8 0
700 8 0
-701 -9 0
701 9 0
-702 -57 0
702 57 0
-703 -6 0
703 6 0
-704 -11 0
704 11 0
-705 -60 0
705 60 0
-706 -14 0
706 14 0
-707 -63 0
707 63 0
-708 -16 0
708 16 0
-709 -66 0
709 66 0
-710 -7 0
710 7 0
-711 -69 0
711 69 0
-712 -20 0
712 20 0
-713 -72 0
713 72 0
-714 -21 0
714 21 0
-715 -17 0
715 17 0
-716 -75 0
716 75 0
-717 -24 0
717 24 0
-718 -25 0
718 25 0
-719 -78 0
719 78 0
-720 -27 0
720 27 0
-721 -26 0
721 26 0
-722 -81 0
722 81 0
-723 -28 0
723 28 0
-724 -29 0
724 29 0
-725 -84 0
725 84 0
-726 -30 0
726 30 0
-727 -87 0
727 87 0
-728 -32 0
728 32 0
-729 -4 0
729 4 0
-730 -90 0
730 90 0
-731 -93 0
731 93 0
-732 -33 0
732 33 0
-733 -12 0
733 12 0
-734 -96 0
734 96 0
-735 -99 0
735 99 0
-736 -22 0
736 22 0
-737 -102 0
737 102 0
-738 -19 0
738 19 0
-739 -105 0
739 105 0
-740 -37 0
740 37 0
-741 -36 0
741 36 0
-742 -108 0
742 108 0
-743 -111 0
743 111 0
-744 -42 0
744 42 0
-745 -41 0
745 41 0
-746 -114 0
746 114 0
-747 -18 0
747 18 0
-748 -117 0
748 117 0
-749 -120 0
749 120 0
-750 -43 0
750 43 0
-751 -123 0
751 123 0
-752 -44 0
752 44 0
-753 -34 0
753 34 0
-754 -126 0
754 126 0
-755 -129 0
755 129 0
-756 -15 0
756 15 0
-757 -132 0
757 132 0
-758 -40 0
758 40 0
-759 -135 0
759 135 0
-760 -45 0
760 45 0
-761 -138 0
761 138 0
-762 -141 0
762 141 0
-763 -144 0
763 144 0
-764 -47 0
764 47 0
-765 -147 0
765 147 0
-766 -150 0
766 150 0
-767 -153 0
767 153 0
-768 -156 0
768 156 0
-769 -159 0
769 159 0
-770 -13 0
770 13 0
-771 -162 0
771 162 0
-772 -48 0
772 48 0
-773 -165 0
773 165 0
-774 -31 0
774 31 0
-775 -10 0
775 10 0
-776 -168 0
776 168 0
-777 -171 0
777 171 0
-778 -174 0
778 174 0
-779 -177 0
779 177 0
-780 -180 0
780 180 0
-781 -183 0
781 183 0
-782 -186 0
782 186 0
-783 -189 0
783 189 0
-784 -192 0
784 192 0
-785 -49 0
785 49 0
-786 -195 0
786 195 0
-787 -198 0
787 198 0
-788 -201 0
788 201 0
-789 -204 0
789 204 0
-790 -207 0
790 207 0
-791 -39 0
791 39 0
-792 -210 0
792 210 0
-793 -213 0
793 213 0
-794 -216 0
794 216 0
-795 -219 0
795 219 0
-796 -222 0
796 222 0
-797 -225 0
797 225 0
-798 -228 0
798 228 0
-799 -50 0
799 50 0
-800 -231 0
800 231 0
-801 -234 0
801 234 0
-802 -236 0
802 236 0
-803 -23 0
803 23 0
-804 -239 0
804 239 0
-805 -242 0
805 242 0
-806 -245 0
806 245 0
-807 -248 0
807 248 0
-808 -251 0
808 251 0
-809 -46 0
809 46 0
-810 -254 0
810 254 0
-811 -257 0
811 257 0
-812 -260 0
812 260 0
-813 -3 0
813 3 0
-814 -263 0
814 263 0
-815 -2 0
815 2 0
-816 -266 0
816 266 0
-817 -269 0
817 269 0
-818 -272 0
818 272 0
-819 -275 0
819 275 0
-820 -278 0
820 278 0
-821 -281 0
821 281 0
-822 -284 0
822 284 0
-823 -287 0
823 287 0
-824 -290 0
824 290 0
-825 -293 0
825 293 0
-826 -296 0
826 296 0
-827 -299 0
827 299 0
-828 -302 0
828 302 0
-829 -305 0
829 305 0
-830 -308 0
830 308 0
-831 -311 0
831 311 0
-832 -314 0
832 314 0
-833 -317 0
833 317 0
-834 -320 0
834 320 0
-835 -323 0
835 323 0
-836 -326 0
836 326 0
-837 -329 0
837 329 0
-838 -332 0
838 332 0
-839 -335 0
839 335 0
-840 -338 0
840 338 0
-841 -340 0
841 340 0
-842 -343 0
842 343 0
-843 -346 0
843 346 0
-844 -349 0
844 349 0
-845 -352 0
845 352 0
-846 -38 0
846 38 0
-847 -355 0
847 355 0
-848 -358 0
848 358 0
-849 -361 0
849 361 0
-850 -364 0
850 364 0
-851 -367 0
851 367 0
-852 -370 0
852 370 0
-853 -373 0
853 373 0
-854 -376 0
854 376 0
-855 -379 0
855 379 0
-856 -382 0
856 382 0
-857 -385 0
857 385 0
-858 -388 0
858 388 0
-859 -391 0
859 391 0
-860 -394 0
860 394 0
-861 -397 0
861 397 0
-862 -35 0
862 35 0
-863 -400 0
863 400 0
-864 -403 0
864 403 0
-865 -406 0
865 406 0
-866 -409 0
866 409 0
-867 -412 0
867 412 0
-868 -415 0
868 415 0
-869 -418 0
869 418 0
-870 -421 0
870 421 0
-871 -424 0
871 424 0
-872 -427 0
872 427 0
-873 -430 0
873 430 0
-874 -432 0
874 432 0
-875 -435 0
875 435 0
-876 -438 0
876 438 0
-877 -441 0
877 441 0
-878 -444 0
878 444 0
-879 -447 0
879 447 0
-880 -450 0
880 450 0
-881 -453 0
881 453 0
-882 -456 0
882 456 0
-883 -459 0
883 459 0
-884 -462 0
884 462 0
-885 -464 0
885 464 0
-886 -467 0
886 467 0
-887 -470 0
887 470 0
-888 -473 0
888 473 0
-889 -476 0
889 476 0
-890 -479 0
890 479 0
-891 -482 0
891 482 0
-892 -485 0
892 485 0
-893 -488 0
893 488 0
-894 -491 0
894 491 0
-895 -494 0
895 494 0
-896 -497 0
896 497 0
-897 -500 0
897 500 0
-898 -503 0
898 503 0
-899 -506 0
899 506 0
-900 -509 0
900 509 0
-901 -512 0
901 512 0
-902 -515 0
902 515 0
-903 -518 0
903 518 0
-904 -521 0
904 521 0
-905 -524 0
905 524 0
-906 -527 0
906 527 0
-907 -530 0
907 530 0
-908 -533 0
908 533 0
-909 -536 0
909 536 0
-910 -539 0
910 539 0
-911 -542 0
911 542 0
-912 -545 0
912 545 0
-913 -548 0
913 548 0
-914 -551 0
914 551 0
-915 -554 0
915 554 0
-916 -557 0
916 557 0
-917 -560 0
917 560 0
-918 -563 0
918 563 0
-919 -566 0
919 566 0
-920 -569 0
920 569 0
-921 -572 0
921 572 0
-922 -575 0
922 575 0
-923 -577 0
923 577 0
-924 -580 0
924 580 0
-925 -583 0
925 583 0
-926 -586 0
926 586 0
-927 -589 0
927 589 0
-928 -592 0
928 592 0
-929 -595 0
929 595 0
-930 -598 0
930 598 0
-931 -601 0
931 601 0
-932 -604 0
932 604 0
-933 -607 0
933 607 0
-934 -609 0
934 609 0
-935 -612 0
935 612 0
-936 -615 0
936 615 0
-937 -618 0
937 618 0
-938 -621 0
938 621 0
-939 -624 0
939 624 0
-940 -627 0
940 627 0
-941 -630 0
941 630 0
-942 -633 0
942 633 0
-943 -636 0
943 636 0
-944 -639 0
944 639 0
-945 -642 0
945 642 0
-946 -645 0
946 645 0
-947 -648 0
947 648 0
-948 -651 0
948 651 0
-949 -654 0
949 654 0
-950 -656 0
950 656 0
-951 -659 0
951 659 0
-952 -662 0
952 662 0
-953 -665 0
953 665 0
-954 -668 0
954 668 0
-955 -671 0
955 671 0
-956 -674 0
956 674 0
-957 -677 0
957 677 0
-958 -680 0
958 680 0
-959 -683 0
959 683 0
-960 -686 0
960 686 0
-961 -689 0
961 689 0
-962 -692 0
962 692 0
-963 -695 0
963 695 0
696 0
